20	2	9	6	19	6	10	16	4	13
17	16	9	7	1	18	9	2	2	6
8	20	1	18	4	17	19	6	10	9
6	18	6	11	1	12	8	7	16	1
2	11	17	18	9	14	10	8	6	15
1	1	6	15	19	6	2	1	10	18
17	16	13	11	5	20	11	2	13	5
5	10	7	11	4	16	15	15	2	10
12	18	6	10	14	15	4	6	15	17
3	17	13	19	9	16	12	8	13	18
20	6	17	16	16	16	16	13	13	3
14	5	18	13	8	5	8	4	8	5
20	19	18	11	13	12	20	8	14	5
19	15	1	1	10	7	17	7	17	8
3	12	8	18	10	2	2	2	2	3
5	12	8	15	4	15	17	15	2	8
10	7	15	12	20	2	4	8	20	15
3	3	7	12	5	10	4	8	16	11
14	3	16	18	18	20	7	13	10	10
